Optimal - objective value 122000.00000000
      0 C0000000            1000                       0
      1 C0000001  -1.1368684e-13                       0
      2 C0000002   -1.110223e-16                       0
      3 C0000003               0                       0
      4 C0000004               0                       0
      5 C0000005               0                       0
      6 C0000006               0                       0
      7 C0000007               0                       0
      8 C0000008               0                       0
      9 C0000009            1000                      20
     10 C0000010            1000                       0
     11 C0000011   1.1368684e-13                       0
     12 C0000012               0                       0
     13 C0000013               1                       0
     14 C0000014              -1                       0
     15 C0000015             500                       0
     16 C0000016             -50                       0
     17 C0000017               0                       0
     18 C0000018               1                       0
     19 C0000019               0                       0
     20 C0000020               0                      56
     21 C0000021            -100                       0
     22 C0000022               0                       0
     23 C0000023               1                       0
     24 C0000024               0                       0
     25 C0000025            1600                      44
     26 C0000026               0                       0
     27 C0000027               0                       0
     28 C0000028               0                       0
     29 C0000029               1                       0
     30 C0000030               1                       0
     31 C0000031               0                       0
     32 C0000032             500                       0
     33 C0000033             -50                       0
     34 C0000034               0                       0
     35 C0000035               1                       0
     36 C0000036              -1                       0
     37 C0000037   1.4210855e-14                      56
     38 C0000038            -100                       0
     39 C0000039               0                       0
     40 C0000040               1                       0
     41 C0000041              -1                       0
     42 C0000042             600                      44
     43 C0000043             900                       0
     44 C0000044            -100                       0
     45 C0000045   -1.110223e-16                       0
     46 C0000046               1                       0
     47 C0000047   -1.110223e-16                       0
     48 C0000048               0                       0
     49 C0000049               0                       0
     50 C0000050               1                       0
     51 C0000051               1                       0
     52 C0000052               0                       0
     53 C0000053               0                       0
     54 C0000054               0                       0
     55 C0000055               1                       0
     56 C0000056               1                       0
     57 C0000057               0                       0
     58 C0000058             900                      20
      0 X0000000            1000                       0
      1 X0000001               0                      24
      2 X0000002               0                      80
      3 X0000003            1000                     -24
      4 X0000004             500                       0
      5 X0000005             100                       0
      6 X0000006               0                     -24
      7 X0000007             500                       0
      8 X0000008             100                       0
      9 X0000009             900                       0
     10 X0000010               0                      24
     11 X0000011               0                      80
     12 X0000012               1                       0
     13 X0000013               0                       0
     14 X0000014               0                       0
     15 X0000015               1                       0
     16 X0000016               1                       0
     17 X0000017               1                    5600
     18 X0000018               0                       0
     19 X0000019               1                       0
     20 X0000020               1                    5600
     21 X0000021               1                       0
     22 X0000022               0                       0
     23 X0000023               0                       0
     24 X0000024               1                       0
     25 X0000025               0                       0
     26 X0000026               0                       0
     27 X0000027               0                       0
     28 X0000028               1                       0
     29 X0000029               1                       0
     30 X0000030               0                       0
     31 X0000031               0                       0
     32 X0000032               0                       0
     33 X0000033               1                       0
     34 X0000034               0                       0
     35 X0000035               0                       0
